p cnf 12 50 
-9 -8 -4 0
9 6 -7 0
-2 -11 3 0
4 -1 -5 0
3 8 7 0
5 6 -8 0
-1 -3 12 0
-8 4 -1 0
-6 -4 -9 0
-7 -8 11 0
-10 8 5 0
-7 -11 -4 0
-2 -5 -7 0
6 -2 7 0
2 -3 12 0
-3 7 -4 0
-9 2 11 0
-12 6 -5 0
1 4 11 0
2 8 10 0
-8 10 -11 0
2 1 3 0
-2 12 6 0
-10 7 -9 0
3 12 -1 0
-1 6 4 0
6 -8 -12 0
3 -4 11 0
-9 8 10 0
12 1 6 0
6 10 -11 0
3 -9 -4 0
2 -1 6 0
-1 8 6 0
12 11 -8 0
2 5 4 0
6 2 3 0
-6 -11 -1 0
9 8 -1 0
-2 1 6 0
-7 10 -11 0
-6 -2 12 0
5 6 -8 0
9 -6 -10 0
7 12 -2 0
11 -6 1 0
-10 8 -4 0
6 -11 -7 0
7 -1 -5 0
4 9 -2 0
